(set-logic QF_S)
(declare-fun var0 () String)
(declare-fun var1 () String)
(declare-fun var2 () String)
(declare-fun var3 () Int)
(declare-fun var4 () Int)
(declare-fun var5 () Int)
(declare-fun var6 () Bool)
(declare-fun var7 () Bool)
(declare-fun var8 () Bool)
(assert (str.contains var1 var2))
(assert (>= var3 9))
(assert (> (str.len var2) (str.len "&l]{e_n9mY")))
(assert (< (str.len var1) (str.indexof (str.replace var1 var0 var1) (str.++ var0 var0) (str.len var1))))
(check-sat)